column=8;
row=8;
Board=[|8,0,0,0,0,0,0,0|0,0,0,0,0,0,0,1|0,6,2,5,0,1,8,7|0,0,0,0,0,3,0,0|0,0,0,0,0,2,0,0|7,0,0,0,0,8,0,2|1,0,7,0,0,4,0,5|3,0,1,6,0,5,0,8|];
horizontal=[|0,0,0,0,0,0,0|0,0,1,0,1,0,1|0,0,0,0,0,0,1|0,0,0,0,0,1,0|1,0,0,0,1,0,1|0,0,0,1,0,0,1|0,0,0,0,0,0,1|1,0,0,0,0,0,1|];
vertical=[|0,0,1,0,0,1,1,0|1,0,0,0,0,0,0,0|0,1,0,0,0,0,0,1|0,0,0,0,0,1,1,0|1,0,0,0,0,0,0,0|0,0,1,0,0,0,0,0|0,1,0,0,0,1,1,0|];
